100 74127

 946 266
443 496
600 847
477 506
933 749
77 139
502 253
687 732
792 165
584 352
909 265
942 350
65 709
403 368
24 556
330 100
537 806
911 370
847 649
128 726
94 210
590 885
533 617
267 429
900 183
928 943
403 756
891 209
384 338
737 810
476 696
123 766
928 442
455 717
735 387
368 212
19 633
101 977
497 311
690 461
335 675
696 542
699 844
704 762
493 59
915 999
490 753
451 864
200 652
308 857
43 113
634 348
249 877
305 202
771 79
328 789
243 836
170 163
775 855
130 687
454 521
507 831
688 420
634 194
811 285
45 506
297 532
281 806
147 792
290 582
310 781
522 192
664 51
382 874
720 76
337 247
291 696
542 410
24 877
80 298
418 12
943 301
722 579
89 376
847 535
733 877
611 913
821 266
405 463
222 550
513 950
549 999
539 236
566 727
949 379
903 9
876 10
802 461
944 489
99 23
